This file is generated by VASPKIT code  
   1.00000000000000     
     5.9819392181200213    0.0000000000000000    0.0000000000000000
     0.0000000000000000    5.9819392181200213    0.0000000000000000
     0.0000000000000000    0.0000000000000000    5.9819392181200213
   Ge   Te
     4     4
Direct
  0.0159631207272688  0.0159609667867296  0.0159697112010543
  0.0159640522928342  0.5159669455871800  0.5159638956253237
  0.5159670858046497  0.0159670657233012  0.5159618394534815
  0.5159663034079333  0.5159688307478072  0.0159640557735782
 -0.0059687243585538 -0.0059638598466773  0.4940414223011046
 -0.0059660400952696  0.4940348620057210 -0.0059688364412347
  0.4940394885488745 -0.0059663562535044 -0.0059684518632792
  0.4940347136722550  0.4940315452494345  0.4940363639499636
 
  0.00000000E+00  0.00000000E+00  0.00000000E+00
  0.00000000E+00  0.00000000E+00  0.00000000E+00
  0.00000000E+00  0.00000000E+00  0.00000000E+00
  0.00000000E+00  0.00000000E+00  0.00000000E+00
  0.00000000E+00  0.00000000E+00  0.00000000E+00
  0.00000000E+00  0.00000000E+00  0.00000000E+00
  0.00000000E+00  0.00000000E+00  0.00000000E+00
  0.00000000E+00  0.00000000E+00  0.00000000E+00
