This file is generated by VASPKIT code
 1.000000
    5.9819392181200213    0.0000000000000000    0.0000000000000000
    0.0000000000000000    5.9819392181200213    0.0000000000000000
    0.0000000000000000    0.0000000000000000    5.9819392181200213
   Ge   Te
     4     4
Direct
    0.0100000000000000    0.0100000000000000    0.0100000000000000     Ge1
    0.0100000000000000    0.5100000000000000    0.5100000000000000     Ge2
    0.5100000000000000    0.0100000000000000    0.5100000000000000     Ge3
    0.5100000000000000    0.5100000000000000    0.0100000000000000     Ge4
    0.0000000000000000    0.0000000000000000    0.5000000000000000     Te1
    0.0000000000000000    0.5000000000000000    0.0000000000000000     Te2
    0.5000000000000000    0.0000000000000000    0.0000000000000000     Te3
    0.5000000000000000    0.5000000000000000    0.5000000000000000     Te4
